p cnf 10 40
9 10 -1 0
1 4 -10 0
2 -3 7 0
-3 5 1 0
-7 10 -1 0
9 -10 -9 0
10 6 -9 0
9 -4 -1 0
8 9 6 0
-8 9 6 0
8 -3 6 0
1 10 2 0
8 -5 -4 0
5 6 7 0
8 -5 -4 0
-1 6 -10 0
1 -5 -4 0
8 -4 -2 0
-8 4 -10 0
3 -3 -2 0
1 -6 4 0
-5 5 -10 0
8 -2 -10 0
-7 10 -1 0
1 2 -10 0
8 3 -5 0
-7 3 1 0
9 3 -10 0
-8 7 -9 0
-7 10 -4 0
-7 -3 -9 0
10 4 5 0
10 3 -10 0
-6 -5 -10 0
9 10 7 0
8 1 -1 0
1 -6 2 0
2 -6 -1 0
8 9 -3 0
9 -6 -4 0
